NAME: PointSet_Angle_60_10
TYPE: TSP
COMMENT: Points chosen discrete uniformly at random out of ${0, \ldots, 500}^2$.
DIMENSION: 60
EDGE_WEIGHT_TYPE: EUC_2D
NODE_COORD_SECTION
1 437 430
2 449 465
3 234 115
4 443 22
5 276 291
6 448 379
7 172 279
8 464 261
9 395 61
10 226 92
11 76 221
12 88 265
13 313 292
14 480 269
15 4 1
16 492 187
17 177 440
18 398 411
19 54 87
20 180 76
21 124 127
22 455 296
23 406 419
24 56 46
25 226 28
26 386 48
27 249 474
28 313 62
29 265 292
30 77 15
31 40 68
32 203 464
33 8 347
34 375 309
35 434 301
36 386 58
37 428 86
38 354 333
39 251 411
40 125 477
41 439 10
42 24 188
43 484 338
44 497 496
45 376 320
46 10 162
47 388 460
48 126 142
49 307 247
50 198 240
51 47 330
52 44 221
53 416 399
54 300 167
55 55 425
56 390 494
57 436 415
58 428 165
59 499 170
60 160 120
EOF
